p cnf 36 776
1 0
2 0
-7 -13 -19 0
-7 -19 -13 0
-13 -7 -19 0
-13 -19 -7 0
-19 -7 -13 0
-19 -13 -7 0
13 19 0
7 19 0
7 13 0
-31 -25 -26 0
-31 -25 -27 0
-31 -25 -32 0
-31 -26 -25 0
-31 -26 -27 0
-31 -26 -32 0
-31 -27 -25 0
-31 -27 -26 0
-31 -27 -32 0
-31 -32 -25 0
-31 -32 -26 0
-31 -32 -27 0
-25 -31 -26 0
-25 -31 -27 0
-25 -31 -32 0
-25 -26 -31 0
-25 -26 -27 0
-25 -26 -32 0
-25 -27 -31 0
-25 -27 -26 0
-25 -27 -32 0
-25 -32 -31 0
-25 -32 -26 0
-25 -32 -27 0
-26 -31 -25 0
-26 -31 -27 0
-26 -31 -32 0
-26 -25 -31 0
-26 -25 -27 0
-26 -25 -32 0
-26 -27 -31 0
-26 -27 -25 0
-26 -27 -32 0
-26 -32 -31 0
-26 -32 -25 0
-26 -32 -27 0
-27 -31 -25 0
-27 -31 -26 0
-27 -31 -32 0
-27 -25 -31 0
-27 -25 -26 0
-27 -25 -32 0
-27 -26 -31 0
-27 -26 -25 0
-27 -26 -32 0
-27 -32 -31 0
-27 -32 -25 0
-27 -32 -26 0
-32 -31 -25 0
-32 -31 -26 0
-32 -31 -27 0
-32 -25 -31 0
-32 -25 -26 0
-32 -25 -27 0
-32 -26 -31 0
-32 -26 -25 0
-32 -26 -27 0
-32 -27 -31 0
-32 -27 -25 0
-32 -27 -26 0
25 26 27 32 0
31 26 27 32 0
31 25 27 32 0
31 25 26 32 0
31 25 26 27 0
-33 -34 -35 0
-33 -34 -36 0
-33 -35 -34 0
-33 -35 -36 0
-33 -36 -34 0
-33 -36 -35 0
-34 -33 -35 0
-34 -33 -36 0
-34 -35 -33 0
-34 -35 -36 0
-34 -36 -33 0
-34 -36 -35 0
-35 -33 -34 0
-35 -33 -36 0
-35 -34 -33 0
-35 -34 -36 0
-35 -36 -33 0
-35 -36 -34 0
-36 -33 -34 0
-36 -33 -35 0
-36 -34 -33 0
-36 -34 -35 0
-36 -35 -33 0
-36 -35 -34 0
34 35 36 0
33 35 36 0
33 34 36 0
33 34 35 0
-28 -29 -30 0
-28 -29 -24 0
-28 -30 -29 0
-28 -30 -24 0
-28 -24 -29 0
-28 -24 -30 0
-29 -28 -30 0
-29 -28 -24 0
-29 -30 -28 0
-29 -30 -24 0
-29 -24 -28 0
-29 -24 -30 0
-30 -28 -29 0
-30 -28 -24 0
-30 -29 -28 0
-30 -29 -24 0
-30 -24 -28 0
-30 -24 -29 0
-24 -28 -29 0
-24 -28 -30 0
-24 -29 -28 0
-24 -29 -30 0
-24 -30 -28 0
-24 -30 -29 0
29 30 24 0
28 30 24 0
28 29 24 0
28 29 30 0
-22 -21 -20 0
-22 -21 -14 0
-22 -21 -8 0
-22 -21 -9 0
-22 -21 -15 0
-22 -20 -21 0
-22 -20 -14 0
-22 -20 -8 0
-22 -20 -9 0
-22 -20 -15 0
-22 -14 -21 0
-22 -14 -20 0
-22 -14 -8 0
-22 -14 -9 0
-22 -14 -15 0
-22 -8 -21 0
-22 -8 -20 0
-22 -8 -14 0
-22 -8 -9 0
-22 -8 -15 0
-22 -9 -21 0
-22 -9 -20 0
-22 -9 -14 0
-22 -9 -8 0
-22 -9 -15 0
-22 -15 -21 0
-22 -15 -20 0
-22 -15 -14 0
-22 -15 -8 0
-22 -15 -9 0
-21 -22 -20 0
-21 -22 -14 0
-21 -22 -8 0
-21 -22 -9 0
-21 -22 -15 0
-21 -20 -22 0
-21 -20 -14 0
-21 -20 -8 0
-21 -20 -9 0
-21 -20 -15 0
-21 -14 -22 0
-21 -14 -20 0
-21 -14 -8 0
-21 -14 -9 0
-21 -14 -15 0
-21 -8 -22 0
-21 -8 -20 0
-21 -8 -14 0
-21 -8 -9 0
-21 -8 -15 0
-21 -9 -22 0
-21 -9 -20 0
-21 -9 -14 0
-21 -9 -8 0
-21 -9 -15 0
-21 -15 -22 0
-21 -15 -20 0
-21 -15 -14 0
-21 -15 -8 0
-21 -15 -9 0
-20 -22 -21 0
-20 -22 -14 0
-20 -22 -8 0
-20 -22 -9 0
-20 -22 -15 0
-20 -21 -22 0
-20 -21 -14 0
-20 -21 -8 0
-20 -21 -9 0
-20 -21 -15 0
-20 -14 -22 0
-20 -14 -21 0
-20 -14 -8 0
-20 -14 -9 0
-20 -14 -15 0
-20 -8 -22 0
-20 -8 -21 0
-20 -8 -14 0
-20 -8 -9 0
-20 -8 -15 0
-20 -9 -22 0
-20 -9 -21 0
-20 -9 -14 0
-20 -9 -8 0
-20 -9 -15 0
-20 -15 -22 0
-20 -15 -21 0
-20 -15 -14 0
-20 -15 -8 0
-20 -15 -9 0
-14 -22 -21 0
-14 -22 -20 0
-14 -22 -8 0
-14 -22 -9 0
-14 -22 -15 0
-14 -21 -22 0
-14 -21 -20 0
-14 -21 -8 0
-14 -21 -9 0
-14 -21 -15 0
-14 -20 -22 0
-14 -20 -21 0
-14 -20 -8 0
-14 -20 -9 0
-14 -20 -15 0
-14 -8 -22 0
-14 -8 -21 0
-14 -8 -20 0
-14 -8 -9 0
-14 -8 -15 0
-14 -9 -22 0
-14 -9 -21 0
-14 -9 -20 0
-14 -9 -8 0
-14 -9 -15 0
-14 -15 -22 0
-14 -15 -21 0
-14 -15 -20 0
-14 -15 -8 0
-14 -15 -9 0
-8 -22 -21 0
-8 -22 -20 0
-8 -22 -14 0
-8 -22 -9 0
-8 -22 -15 0
-8 -21 -22 0
-8 -21 -20 0
-8 -21 -14 0
-8 -21 -9 0
-8 -21 -15 0
-8 -20 -22 0
-8 -20 -21 0
-8 -20 -14 0
-8 -20 -9 0
-8 -20 -15 0
-8 -14 -22 0
-8 -14 -21 0
-8 -14 -20 0
-8 -14 -9 0
-8 -14 -15 0
-8 -9 -22 0
-8 -9 -21 0
-8 -9 -20 0
-8 -9 -14 0
-8 -9 -15 0
-8 -15 -22 0
-8 -15 -21 0
-8 -15 -20 0
-8 -15 -14 0
-8 -15 -9 0
-9 -22 -21 0
-9 -22 -20 0
-9 -22 -14 0
-9 -22 -8 0
-9 -22 -15 0
-9 -21 -22 0
-9 -21 -20 0
-9 -21 -14 0
-9 -21 -8 0
-9 -21 -15 0
-9 -20 -22 0
-9 -20 -21 0
-9 -20 -14 0
-9 -20 -8 0
-9 -20 -15 0
-9 -14 -22 0
-9 -14 -21 0
-9 -14 -20 0
-9 -14 -8 0
-9 -14 -15 0
-9 -8 -22 0
-9 -8 -21 0
-9 -8 -20 0
-9 -8 -14 0
-9 -8 -15 0
-9 -15 -22 0
-9 -15 -21 0
-9 -15 -20 0
-9 -15 -14 0
-9 -15 -8 0
-15 -22 -21 0
-15 -22 -20 0
-15 -22 -14 0
-15 -22 -8 0
-15 -22 -9 0
-15 -21 -22 0
-15 -21 -20 0
-15 -21 -14 0
-15 -21 -8 0
-15 -21 -9 0
-15 -20 -22 0
-15 -20 -21 0
-15 -20 -14 0
-15 -20 -8 0
-15 -20 -9 0
-15 -14 -22 0
-15 -14 -21 0
-15 -14 -20 0
-15 -14 -8 0
-15 -14 -9 0
-15 -8 -22 0
-15 -8 -21 0
-15 -8 -20 0
-15 -8 -14 0
-15 -8 -9 0
-15 -9 -22 0
-15 -9 -21 0
-15 -9 -20 0
-15 -9 -14 0
-15 -9 -8 0
21 20 14 8 9 15 0
22 20 14 8 9 15 0
22 21 14 8 9 15 0
22 21 20 8 9 15 0
22 21 20 14 9 15 0
22 21 20 14 8 15 0
22 21 20 14 8 9 0
-16 -10 -11 0
-16 -10 -5 0
-16 -11 -10 0
-16 -11 -5 0
-16 -5 -10 0
-16 -5 -11 0
-10 -16 -11 0
-10 -16 -5 0
-10 -11 -16 0
-10 -11 -5 0
-10 -5 -16 0
-10 -5 -11 0
-11 -16 -10 0
-11 -16 -5 0
-11 -10 -16 0
-11 -10 -5 0
-11 -5 -16 0
-11 -5 -10 0
-5 -16 -10 0
-5 -16 -11 0
-5 -10 -16 0
-5 -10 -11 0
-5 -11 -16 0
-5 -11 -10 0
10 11 5 0
16 11 5 0
16 10 5 0
16 10 11 0
4 0
3 0
-6 -12 -18 0
-6 -12 -17 0
-6 -12 -23 0
-6 -18 -12 0
-6 -18 -17 0
-6 -18 -23 0
-6 -17 -12 0
-6 -17 -18 0
-6 -17 -23 0
-6 -23 -12 0
-6 -23 -18 0
-6 -23 -17 0
-12 -6 -18 0
-12 -6 -17 0
-12 -6 -23 0
-12 -18 -6 0
-12 -18 -17 0
-12 -18 -23 0
-12 -17 -6 0
-12 -17 -18 0
-12 -17 -23 0
-12 -23 -6 0
-12 -23 -18 0
-12 -23 -17 0
-18 -6 -12 0
-18 -6 -17 0
-18 -6 -23 0
-18 -12 -6 0
-18 -12 -17 0
-18 -12 -23 0
-18 -17 -6 0
-18 -17 -12 0
-18 -17 -23 0
-18 -23 -6 0
-18 -23 -12 0
-18 -23 -17 0
-17 -6 -12 0
-17 -6 -18 0
-17 -6 -23 0
-17 -12 -6 0
-17 -12 -18 0
-17 -12 -23 0
-17 -18 -6 0
-17 -18 -12 0
-17 -18 -23 0
-17 -23 -6 0
-17 -23 -12 0
-17 -23 -18 0
-23 -6 -12 0
-23 -6 -18 0
-23 -6 -17 0
-23 -12 -6 0
-23 -12 -18 0
-23 -12 -17 0
-23 -18 -6 0
-23 -18 -12 0
-23 -18 -17 0
-23 -17 -6 0
-23 -17 -12 0
-23 -17 -18 0
12 18 17 23 0
6 18 17 23 0
6 12 17 23 0
6 12 18 23 0
6 12 18 17 0
-1 -7 -2 0
-1 -2 -7 0
-1 7 2 0
-2 -8 -3 0
-2 -8 -1 0
-2 -3 -8 0
-2 -3 -1 0
-2 -1 -8 0
-2 -1 -3 0
-2 8 3 1 0
-3 -9 -4 0
-3 -9 -2 0
-3 -4 -9 0
-3 -4 -2 0
-3 -2 -9 0
-3 -2 -4 0
-3 9 4 2 0
-4 -10 -5 0
-4 -10 -3 0
-4 -5 -10 0
-4 -5 -3 0
-4 -3 -10 0
-4 -3 -5 0
-4 10 5 3 0
-5 -11 -6 0
-5 -11 -4 0
-5 -6 -11 0
-5 -6 -4 0
-5 -4 -11 0
-5 -4 -6 0
-5 11 6 4 0
-6 -12 -5 0
-6 -5 -12 0
-6 12 5 0
-7 -13 -1 0
-7 -13 -8 0
-7 -1 -13 0
-7 -1 -8 0
-7 -8 -13 0
-7 -8 -1 0
-7 13 1 8 0
-8 -14 -2 0
-8 -14 -9 0
-8 -14 -7 0
-8 -2 -14 0
-8 -2 -9 0
-8 -2 -7 0
-8 -9 -14 0
-8 -9 -2 0
-8 -9 -7 0
-8 -7 -14 0
-8 -7 -2 0
-8 -7 -9 0
-8 14 2 9 7 0
-9 -15 -3 0
-9 -15 -10 0
-9 -15 -8 0
-9 -3 -15 0
-9 -3 -10 0
-9 -3 -8 0
-9 -10 -15 0
-9 -10 -3 0
-9 -10 -8 0
-9 -8 -15 0
-9 -8 -3 0
-9 -8 -10 0
-9 15 3 10 8 0
-10 -16 -4 0
-10 -16 -11 0
-10 -16 -9 0
-10 -4 -16 0
-10 -4 -11 0
-10 -4 -9 0
-10 -11 -16 0
-10 -11 -4 0
-10 -11 -9 0
-10 -9 -16 0
-10 -9 -4 0
-10 -9 -11 0
-10 16 4 11 9 0
-11 -17 -5 0
-11 -17 -12 0
-11 -17 -10 0
-11 -5 -17 0
-11 -5 -12 0
-11 -5 -10 0
-11 -12 -17 0
-11 -12 -5 0
-11 -12 -10 0
-11 -10 -17 0
-11 -10 -5 0
-11 -10 -12 0
-11 17 5 12 10 0
-12 -18 -6 0
-12 -18 -11 0
-12 -6 -18 0
-12 -6 -11 0
-12 -11 -18 0
-12 -11 -6 0
-12 18 6 11 0
-13 -19 -7 0
-13 -19 -14 0
-13 -7 -19 0
-13 -7 -14 0
-13 -14 -19 0
-13 -14 -7 0
-13 19 7 14 0
-14 -20 -8 0
-14 -20 -15 0
-14 -20 -13 0
-14 -8 -20 0
-14 -8 -15 0
-14 -8 -13 0
-14 -15 -20 0
-14 -15 -8 0
-14 -15 -13 0
-14 -13 -20 0
-14 -13 -8 0
-14 -13 -15 0
-14 20 8 15 13 0
-15 -21 -9 0
-15 -21 -16 0
-15 -21 -14 0
-15 -9 -21 0
-15 -9 -16 0
-15 -9 -14 0
-15 -16 -21 0
-15 -16 -9 0
-15 -16 -14 0
-15 -14 -21 0
-15 -14 -9 0
-15 -14 -16 0
-15 21 9 16 14 0
-16 -22 -10 0
-16 -22 -17 0
-16 -22 -15 0
-16 -10 -22 0
-16 -10 -17 0
-16 -10 -15 0
-16 -17 -22 0
-16 -17 -10 0
-16 -17 -15 0
-16 -15 -22 0
-16 -15 -10 0
-16 -15 -17 0
-16 22 10 17 15 0
-17 -23 -11 0
-17 -23 -18 0
-17 -23 -16 0
-17 -11 -23 0
-17 -11 -18 0
-17 -11 -16 0
-17 -18 -23 0
-17 -18 -11 0
-17 -18 -16 0
-17 -16 -23 0
-17 -16 -11 0
-17 -16 -18 0
-17 23 11 18 16 0
-18 -24 -12 0
-18 -24 -17 0
-18 -12 -24 0
-18 -12 -17 0
-18 -17 -24 0
-18 -17 -12 0
-18 24 12 17 0
-19 -25 -13 0
-19 -25 -20 0
-19 -13 -25 0
-19 -13 -20 0
-19 -20 -25 0
-19 -20 -13 0
-19 25 13 20 0
-20 -26 -14 0
-20 -26 -21 0
-20 -26 -19 0
-20 -14 -26 0
-20 -14 -21 0
-20 -14 -19 0
-20 -21 -26 0
-20 -21 -14 0
-20 -21 -19 0
-20 -19 -26 0
-20 -19 -14 0
-20 -19 -21 0
-20 26 14 21 19 0
-21 -27 -15 0
-21 -27 -22 0
-21 -27 -20 0
-21 -15 -27 0
-21 -15 -22 0
-21 -15 -20 0
-21 -22 -27 0
-21 -22 -15 0
-21 -22 -20 0
-21 -20 -27 0
-21 -20 -15 0
-21 -20 -22 0
-21 27 15 22 20 0
-22 -28 -16 0
-22 -28 -23 0
-22 -28 -21 0
-22 -16 -28 0
-22 -16 -23 0
-22 -16 -21 0
-22 -23 -28 0
-22 -23 -16 0
-22 -23 -21 0
-22 -21 -28 0
-22 -21 -16 0
-22 -21 -23 0
-22 28 16 23 21 0
-23 -29 -17 0
-23 -29 -24 0
-23 -29 -22 0
-23 -17 -29 0
-23 -17 -24 0
-23 -17 -22 0
-23 -24 -29 0
-23 -24 -17 0
-23 -24 -22 0
-23 -22 -29 0
-23 -22 -17 0
-23 -22 -24 0
-23 29 17 24 22 0
-24 -30 -18 0
-24 -30 -23 0
-24 -18 -30 0
-24 -18 -23 0
-24 -23 -30 0
-24 -23 -18 0
-24 30 18 23 0
-25 -31 -19 0
-25 -31 -26 0
-25 -19 -31 0
-25 -19 -26 0
-25 -26 -31 0
-25 -26 -19 0
-25 31 19 26 0
-26 -32 -20 0
-26 -32 -27 0
-26 -32 -25 0
-26 -20 -32 0
-26 -20 -27 0
-26 -20 -25 0
-26 -27 -32 0
-26 -27 -20 0
-26 -27 -25 0
-26 -25 -32 0
-26 -25 -20 0
-26 -25 -27 0
-26 32 20 27 25 0
-27 -33 -21 0
-27 -33 -28 0
-27 -33 -26 0
-27 -21 -33 0
-27 -21 -28 0
-27 -21 -26 0
-27 -28 -33 0
-27 -28 -21 0
-27 -28 -26 0
-27 -26 -33 0
-27 -26 -21 0
-27 -26 -28 0
-27 33 21 28 26 0
-28 -34 -22 0
-28 -34 -29 0
-28 -34 -27 0
-28 -22 -34 0
-28 -22 -29 0
-28 -22 -27 0
-28 -29 -34 0
-28 -29 -22 0
-28 -29 -27 0
-28 -27 -34 0
-28 -27 -22 0
-28 -27 -29 0
-28 34 22 29 27 0
-29 -35 -23 0
-29 -35 -30 0
-29 -35 -28 0
-29 -23 -35 0
-29 -23 -30 0
-29 -23 -28 0
-29 -30 -35 0
-29 -30 -23 0
-29 -30 -28 0
-29 -28 -35 0
-29 -28 -23 0
-29 -28 -30 0
-29 35 23 30 28 0
-30 -36 -24 0
-30 -36 -29 0
-30 -24 -36 0
-30 -24 -29 0
-30 -29 -36 0
-30 -29 -24 0
-30 36 24 29 0
-31 -25 -32 0
-31 -32 -25 0
-31 25 32 0
-32 -26 -33 0
-32 -26 -31 0
-32 -33 -26 0
-32 -33 -31 0
-32 -31 -26 0
-32 -31 -33 0
-32 26 33 31 0
-33 -27 -34 0
-33 -27 -32 0
-33 -34 -27 0
-33 -34 -32 0
-33 -32 -27 0
-33 -32 -34 0
-33 27 34 32 0
-34 -28 -35 0
-34 -28 -33 0
-34 -35 -28 0
-34 -35 -33 0
-34 -33 -28 0
-34 -33 -35 0
-34 28 35 33 0
-35 -29 -36 0
-35 -29 -34 0
-35 -36 -29 0
-35 -36 -34 0
-35 -34 -29 0
-35 -34 -36 0
-35 29 36 34 0
-36 -30 -35 0
-36 -35 -30 0
-36 30 35 0
